# 2-D Lennard-Jones simulation

# Initialize
units lj
dimension 2
boundary f f p
atom_style atomic
neighbor 0.3 bin
neigh_modify delay 0 every 1

# Create atoms
read_data data.txt

#delete_atoms overlap 0.1 all all

# Define potential
#pair_style lj/cut 2.5
#pair_coeff * * 0.1 0.01

# Define potential
pair_style lj/cut 6.5
pair_coeff * * 0.001 1.0 2.5  # Coefficients for LJ potential between surrounding atoms
pair_coeff 1 1 10.0 1.0 2.5   # Coefficients for LJ potential between dimer atoms

delete_atoms overlap 0.1 all all

# Define settings
timestep 0.001
thermo 100
thermo_style custom step temp pe press

# Define boundaries
fix 1 all wall/reflect xlo EDGE xhi EDGE
fix 2 all wall/reflect ylo EDGE yhi EDGE

# Define groups
group dimer type 1 2
group surrounding subtract all dimer

# Define initial velocities
velocity all create 1.0 87287 loop geom

# Setup dump output
dump 1 all custom 10 dump.xy id type x y

# Run simulation
fix 3 all nve
run 800000
